32      4       
16      13      13      18      
0       0       0       0       0       3       2       3       4       
10      0       13      1       0       3       5       6       8       
5       0       9       0       11      2       5       6       
4       13      0       5       0       2       5       8       
8       6       0       0       6       1       7       
7       0       2       0       4       1       7       
4       0       0       9       13      2       9       10      
5       3       5       0       0       2       9       10      
4       0       6       1       0       3       11      13      14      
5       5       3       0       0       3       11      12      14      
4       7       6       0       0       2       15      16      
10      7       4       0       0       2       15      16      
6       7       0       8       0       2       15      16      
3       5       0       0       6       1       15      
7       6       0       6       0       2       17      20      
2       0       0       11      14      2       18      20      
7       9       0       0       15      1       18      
3       13      2       0       0       1       19      
5       0       0       4       3       2       21      22      
6       0       12      11      0       1       21      
3       13      0       9       0       2       23      24      
1       0       6       0       13      1       23      
1       0       7       2       0       2       26      28      
1       0       0       4       18      1       25      
7       9       0       0       8       2       27      28      
6       0       8       0       2       1       27      
2       0       0       13      1       2       29      30      
5       0       8       1       0       2       29      30      
2       16      0       0       13      1       31      
8       1       7       0       0       1       31      
2       0       0       13      8       1       32      
0       0       0       0       0       0       
